c A SAT instance generated from a 3-CNF formula that had 48 clauses and 12 variables
p cnf 12 48
1 -6 -8 0
10 9 -6 0
1 -6 10 0
4 -7 -5 0
-5 -4 -10 0
-12 -8 10 0
8 -2 -3 0
-3 -12 -2 0
7 6 -3 0
3 -12 -4 0
11 7 4 0
2 -3 11 0
-2 9 5 0
4 -2 -7 0
-11 -2 -8 0
8 -1 2 0
-11 12 -9 0
-5 -1 -3 0
-8 -2 5 0
-2 3 -9 0
-4 -7 -2 0
-6 11 -8 0
-5 -10 -4 0
-12 2 10 0
-1 3 10 0
-2 1 10 0
7 -12 -1 0
5 4 8 0
1 -3 4 0
9 -7 -4 0
2 5 -12 0
-9 8 -12 0
8 -10 11 0
-10 1 -2 0
-7 -1 -9 0
-11 -6 -3 0
11 12 4 0
-12 5 4 0
-7 -12 -11 0
8 -1 -7 0
8 -9 5 0
8 4 -1 0
-7 1 10 0
2 -5 12 0
10 -12 -7 0
8 -1 11 0
-12 5 4 0
8 12 -3 0
